(set-logic QF_NRA)
(set-info :source |Benchmarks generated from hycomp (https://es-static.fbk.eu/tools/hycomp/). BMC instances of non-linear hybrid automata taken from: Alessandro Cimatti, Sergio Mover, Stefano Tonetta, A quantifier-free SMT encoding of non-linear hybrid automata, FMCAD 2012 and Alessandro Cimatti, Sergio Mover, Stefano Tonetta, Quantier-free encoding of invariants for Hybrid Systems, Formal Methods in System Design. This instance solves a BMC problem of depth 4 and uses the quantifier free encoding with equivalences encoding. Contacts: Sergio Mover (mover@fbk.eu), Stefano Tonetta (tonettas@fbk.eu), Alessandro Cimatti (cimatti@fbk.eu).|)
(set-info :smt-lib-version 2.0)
(set-info :category "industrial")
(set-info :status unsat)
;; MathSAT API call trace
;; generated on Mon Mar 19 10:38:31 2012
(declare-fun b.event_is_timed__AT3 () Bool)
(declare-fun b.time__AT2 () Real)
(declare-fun b.delta__AT2 () Real)
(declare-fun b.x__AT2 () Real)
(declare-fun b.y__AT0 () Real)
(declare-fun b.EVENT.0__AT2 () Bool)
(declare-fun b.counter.0__AT0 () Bool)
(declare-fun b.EVENT.1__AT2 () Bool)
(declare-fun b.EVENT.0__AT0 () Bool)
(declare-fun b.counter.3__AT0 () Bool)
(declare-fun b.counter.1__AT0 () Bool)
(declare-fun b.event_is_timed__AT1 () Bool)
(declare-fun b.bool_atom__AT1 () Bool)
(declare-fun b.event_is_timed__AT4 () Bool)
(declare-fun b.speed_y__AT2 () Real)
(declare-fun b.time__AT3 () Real)
(declare-fun b.g__AT0 () Real)
(declare-fun b.speed_y__AT0 () Real)
(declare-fun b.y__AT4 () Real)
(declare-fun b.x__AT1 () Real)
(declare-fun b.time__AT4 () Real)
(declare-fun b.counter.0__AT4 () Bool)
(declare-fun b.y__AT1 () Real)
(declare-fun b.counter.2__AT0 () Bool)
(declare-fun b.delta__AT4 () Real)
(declare-fun b.counter.1__AT4 () Bool)
(declare-fun b.counter.0__AT1 () Bool)
(declare-fun b.y__AT3 () Real)
(declare-fun b.x__AT4 () Real)
(declare-fun b.EVENT.0__AT4 () Bool)
(declare-fun b.counter.2__AT4 () Bool)
(declare-fun b.counter.1__AT1 () Bool)
(declare-fun b.counter.0__AT3 () Bool)
(declare-fun b.EVENT.1__AT4 () Bool)
(declare-fun b.counter.3__AT4 () Bool)
(declare-fun b.counter.2__AT1 () Bool)
(declare-fun b.counter.1__AT3 () Bool)
(declare-fun b.event_is_timed__AT0 () Bool)
(declare-fun b.bool_atom__AT4 () Bool)
(declare-fun b.x__AT3 () Real)
(declare-fun b.counter.3__AT1 () Bool)
(declare-fun b.bool_atom__AT0 () Bool)
(declare-fun b.counter.2__AT3 () Bool)
(declare-fun b.delta__AT3 () Real)
(declare-fun b.x__AT0 () Real)
(declare-fun b.EVENT.1__AT3 () Bool)
(declare-fun b.counter.3__AT3 () Bool)
(declare-fun b.speed_y__AT4 () Real)
(declare-fun b.EVENT.0__AT3 () Bool)
(declare-fun b.counter.0__AT2 () Bool)
(declare-fun b.bool_atom__AT3 () Bool)
(declare-fun b.delta__AT1 () Real)
(declare-fun b.counter.1__AT2 () Bool)
(declare-fun b.speed_y__AT1 () Real)
(declare-fun b.time__AT1 () Real)
(declare-fun b.event_is_timed__AT2 () Bool)
(declare-fun b.EVENT.0__AT1 () Bool)
(declare-fun b.counter.2__AT2 () Bool)
(declare-fun b.speed_y__AT3 () Real)
(declare-fun b.time__AT0 () Real)
(declare-fun b.EVENT.1__AT1 () Bool)
(declare-fun b.counter.3__AT2 () Bool)
(declare-fun b.delta__AT0 () Real)
(declare-fun b.EVENT.1__AT0 () Bool)
(declare-fun b.bool_atom__AT2 () Bool)
(declare-fun b.y__AT2 () Real)
(assert (let ((.def_76 (* (- 1.0) b.g__AT0)))
(let ((.def_79 (* (/ 1 2) .def_76)))
(let ((.def_92 (* 2.0 .def_79)))
(let ((.def_853 (* .def_92 b.delta__AT4)))
(let ((.def_854 (+ b.speed_y__AT4 .def_853)))
(let ((.def_858 (<= .def_854 0.0 )))
(let ((.def_857 (<= b.speed_y__AT4 0.0 )))
(let ((.def_859 (and .def_857 .def_858)))
(let ((.def_855 (<= 0.0 .def_854)))
(let ((.def_852 (<= 0.0 b.speed_y__AT4)))
(let ((.def_856 (and .def_852 .def_855)))
(let ((.def_860 (or .def_856 .def_859)))
(let ((.def_843 (* b.speed_y__AT4 b.delta__AT4)))
(let ((.def_841 (* b.delta__AT4 b.delta__AT4)))
(let ((.def_842 (* .def_79 .def_841)))
(let ((.def_844 (+ .def_842 .def_843)))
(let ((.def_821 (* (- 1.0) b.x__AT4)))
(let ((.def_822 (* b.x__AT4 .def_821)))
(let ((.def_845 (* (- 1.0) .def_822)))
(let ((.def_848 (+ .def_845 .def_844)))
(let ((.def_849 (+ b.y__AT4 .def_848)))
(let ((.def_850 (<= 0.0 .def_849)))
(let ((.def_823 (<= .def_822 b.y__AT4)))
(let ((.def_851 (and .def_823 .def_850)))
(let ((.def_861 (and .def_851 .def_860)))
(let ((.def_68 (<= b.g__AT0 10.0 )))
(let ((.def_67 (<= 8.0 b.g__AT0)))
(let ((.def_69 (and .def_67 .def_68)))
(let ((.def_862 (and .def_69 .def_861)))
(let ((.def_554 (not b.counter.0__AT3)))
(let ((.def_833 (or b.counter.1__AT3 .def_554)))
(let ((.def_834 (or b.counter.2__AT3 .def_833)))
(let ((.def_544 (not b.counter.1__AT3)))
(let ((.def_828 (and .def_544 .def_554)))
(let ((.def_549 (not b.counter.2__AT3)))
(let ((.def_832 (or .def_549 .def_828)))
(let ((.def_835 (and .def_832 .def_834)))
(let ((.def_836 (or b.counter.3__AT3 .def_835)))
(let ((.def_829 (or b.counter.2__AT3 .def_828)))
(let ((.def_827 (or .def_544 .def_549)))
(let ((.def_830 (and .def_827 .def_829)))
(let ((.def_563 (not b.counter.3__AT3)))
(let ((.def_831 (or .def_563 .def_830)))
(let ((.def_837 (and .def_831 .def_836)))
(let ((.def_824 (and .def_69 .def_823)))
(let ((.def_818 (not b.EVENT.0__AT4)))
(let ((.def_816 (not b.EVENT.1__AT4)))
(let ((.def_819 (or .def_816 .def_818)))
(let ((.def_9 (not b.counter.0__AT4)))
(let ((.def_6 (not b.counter.1__AT4)))
(let ((.def_809 (or .def_6 .def_9)))
(let ((.def_813 (or b.counter.3__AT4 .def_809)))
(let ((.def_810 (or b.counter.2__AT4 .def_809)))
(let ((.def_4 (not b.counter.2__AT4)))
(let ((.def_808 (or .def_4 .def_9)))
(let ((.def_811 (and .def_808 .def_810)))
(let ((.def_14 (not b.counter.3__AT4)))
(let ((.def_812 (or .def_14 .def_811)))
(let ((.def_814 (and .def_812 .def_813)))
(let ((.def_820 (and .def_814 .def_819)))
(let ((.def_825 (and .def_820 .def_824)))
(let ((.def_803 (<= 0.0 b.delta__AT3)))
(let ((.def_634 (not b.EVENT.0__AT3)))
(let ((.def_632 (not b.EVENT.1__AT3)))
(let ((.def_680 (and .def_632 .def_634)))
(let ((.def_682 (not .def_680)))
(let ((.def_804 (or .def_682 .def_803)))
(let ((.def_805 (or b.EVENT.1__AT3 .def_804)))
(let ((.def_717 (= b.bool_atom__AT3 b.bool_atom__AT4)))
(let ((.def_713 (= b.counter.0__AT4 b.counter.0__AT3)))
(let ((.def_711 (= b.counter.1__AT4 b.counter.1__AT3)))
(let ((.def_709 (= b.counter.2__AT4 b.counter.2__AT3)))
(let ((.def_708 (= b.counter.3__AT4 b.counter.3__AT3)))
(let ((.def_710 (and .def_708 .def_709)))
(let ((.def_712 (and .def_710 .def_711)))
(let ((.def_714 (and .def_712 .def_713)))
(let ((.def_799 (and .def_714 .def_717)))
(let ((.def_800 (or .def_682 .def_799)))
(let ((.def_801 (or b.EVENT.1__AT3 .def_800)))
(let ((.def_788 (* .def_76 b.delta__AT3)))
(let ((.def_789 (* (- 1.0) b.speed_y__AT4)))
(let ((.def_792 (+ .def_789 .def_788)))
(let ((.def_793 (+ b.speed_y__AT3 .def_792)))
(let ((.def_794 (= .def_793 0.0 )))
(let ((.def_779 (* (- 1.0) b.y__AT4)))
(let ((.def_659 (* b.speed_y__AT3 b.delta__AT3)))
(let ((.def_783 (+ .def_659 .def_779)))
(let ((.def_657 (* b.delta__AT3 b.delta__AT3)))
(let ((.def_658 (* .def_79 .def_657)))
(let ((.def_784 (+ .def_658 .def_783)))
(let ((.def_785 (+ b.y__AT3 .def_784)))
(let ((.def_786 (= .def_785 0.0 )))
(let ((.def_700 (= b.x__AT3 b.x__AT4)))
(let ((.def_787 (and .def_700 .def_786)))
(let ((.def_795 (and .def_787 .def_794)))
(let ((.def_796 (or .def_682 .def_795)))
(let ((.def_703 (= b.y__AT3 b.y__AT4)))
(let ((.def_774 (and .def_700 .def_703)))
(let ((.def_706 (= b.speed_y__AT3 b.speed_y__AT4)))
(let ((.def_775 (and .def_706 .def_774)))
(let ((.def_771 (= b.delta__AT3 0.0 )))
(let ((.def_772 (and .def_680 .def_771)))
(let ((.def_773 (not .def_772)))
(let ((.def_776 (or .def_773 .def_775)))
(let ((.def_777 (or b.EVENT.1__AT3 .def_776)))
(let ((.def_764 (and .def_706 .def_714)))
(let ((.def_765 (or b.bool_atom__AT3 .def_764)))
(let ((.def_740 (or .def_9 b.counter.0__AT3)))
(let ((.def_739 (or b.counter.0__AT4 .def_554)))
(let ((.def_741 (and .def_739 .def_740)))
(let ((.def_742 (and .def_6 .def_741)))
(let ((.def_743 (or b.counter.1__AT3 .def_742)))
(let ((.def_738 (or b.counter.1__AT4 .def_544)))
(let ((.def_744 (and .def_738 .def_743)))
(let ((.def_755 (and .def_4 .def_744)))
(let ((.def_756 (or b.counter.2__AT3 .def_755)))
(let ((.def_750 (and .def_6 .def_554)))
(let ((.def_751 (or b.counter.1__AT3 .def_750)))
(let ((.def_752 (and .def_738 .def_751)))
(let ((.def_753 (and b.counter.2__AT4 .def_752)))
(let ((.def_754 (or .def_549 .def_753)))
(let ((.def_757 (and .def_754 .def_756)))
(let ((.def_758 (and b.counter.3__AT4 .def_757)))
(let ((.def_759 (or b.counter.3__AT3 .def_758)))
(let ((.def_745 (and b.counter.2__AT4 .def_744)))
(let ((.def_746 (or b.counter.2__AT3 .def_745)))
(let ((.def_734 (or b.counter.1__AT4 b.counter.1__AT3)))
(let ((.def_732 (and .def_6 b.counter.0__AT4)))
(let ((.def_733 (or .def_544 .def_732)))
(let ((.def_735 (and .def_733 .def_734)))
(let ((.def_736 (and .def_4 .def_735)))
(let ((.def_737 (or .def_549 .def_736)))
(let ((.def_747 (and .def_737 .def_746)))
(let ((.def_748 (and .def_14 .def_747)))
(let ((.def_749 (or .def_563 .def_748)))
(let ((.def_760 (and .def_749 .def_759)))
(let ((.def_729 (* b.speed_y__AT4 b.speed_y__AT4)))
(let ((.def_541 (* b.speed_y__AT3 b.speed_y__AT3)))
(let ((.def_730 (= .def_541 .def_729)))
(let ((.def_727 (+ b.speed_y__AT3 b.speed_y__AT4)))
(let ((.def_728 (= .def_727 0.0 )))
(let ((.def_731 (and .def_728 .def_730)))
(let ((.def_761 (and .def_731 .def_760)))
(let ((.def_726 (not b.bool_atom__AT3)))
(let ((.def_762 (or .def_726 .def_761)))
(let ((.def_668 (<= 0.0 b.speed_y__AT3)))
(let ((.def_723 (not .def_668)))
(let ((.def_637 (* (- 1.0) b.x__AT3)))
(let ((.def_638 (* b.x__AT3 .def_637)))
(let ((.def_722 (= b.y__AT3 .def_638)))
(let ((.def_724 (and .def_722 .def_723)))
(let ((.def_725 (= b.bool_atom__AT3 .def_724)))
(let ((.def_763 (and .def_725 .def_762)))
(let ((.def_766 (and .def_763 .def_765)))
(let ((.def_767 (and .def_700 .def_766)))
(let ((.def_768 (and .def_703 .def_767)))
(let ((.def_769 (or .def_680 .def_768)))
(let ((.def_770 (or b.EVENT.1__AT3 .def_769)))
(let ((.def_778 (and .def_770 .def_777)))
(let ((.def_797 (and .def_778 .def_796)))
(let ((.def_687 (= b.time__AT3 b.time__AT4)))
(let ((.def_701 (and .def_687 .def_700)))
(let ((.def_704 (and .def_701 .def_703)))
(let ((.def_707 (and .def_704 .def_706)))
(let ((.def_715 (and .def_707 .def_714)))
(let ((.def_718 (and .def_715 .def_717)))
(let ((.def_719 (or .def_632 .def_718)))
(let ((.def_690 (* (- 1.0) b.time__AT4)))
(let ((.def_693 (+ b.delta__AT3 .def_690)))
(let ((.def_694 (+ b.time__AT3 .def_693)))
(let ((.def_695 (= .def_694 0.0 )))
(let ((.def_696 (or .def_682 .def_695)))
(let ((.def_697 (or b.EVENT.1__AT3 .def_696)))
(let ((.def_688 (or .def_680 .def_687)))
(let ((.def_689 (or b.EVENT.1__AT3 .def_688)))
(let ((.def_698 (and .def_689 .def_697)))
(let ((.def_720 (and .def_698 .def_719)))
(let ((.def_684 (= .def_682 b.event_is_timed__AT4)))
(let ((.def_681 (= b.event_is_timed__AT3 .def_680)))
(let ((.def_685 (and .def_681 .def_684)))
(let ((.def_721 (and .def_685 .def_720)))
(let ((.def_798 (and .def_721 .def_797)))
(let ((.def_802 (and .def_798 .def_801)))
(let ((.def_806 (and .def_802 .def_805)))
(let ((.def_807 (and .def_632 .def_806)))
(let ((.def_826 (and .def_807 .def_825)))
(let ((.def_838 (and .def_826 .def_837)))
(let ((.def_669 (* .def_92 b.delta__AT3)))
(let ((.def_670 (+ b.speed_y__AT3 .def_669)))
(let ((.def_674 (<= .def_670 0.0 )))
(let ((.def_673 (<= b.speed_y__AT3 0.0 )))
(let ((.def_675 (and .def_673 .def_674)))
(let ((.def_671 (<= 0.0 .def_670)))
(let ((.def_672 (and .def_668 .def_671)))
(let ((.def_676 (or .def_672 .def_675)))
(let ((.def_660 (+ .def_658 .def_659)))
(let ((.def_661 (* (- 1.0) .def_638)))
(let ((.def_664 (+ .def_661 .def_660)))
(let ((.def_665 (+ b.y__AT3 .def_664)))
(let ((.def_666 (<= 0.0 .def_665)))
(let ((.def_639 (<= .def_638 b.y__AT3)))
(let ((.def_667 (and .def_639 .def_666)))
(let ((.def_677 (and .def_667 .def_676)))
(let ((.def_678 (and .def_69 .def_677)))
(let ((.def_362 (not b.counter.0__AT2)))
(let ((.def_649 (or b.counter.1__AT2 .def_362)))
(let ((.def_650 (or b.counter.2__AT2 .def_649)))
(let ((.def_352 (not b.counter.1__AT2)))
(let ((.def_644 (and .def_352 .def_362)))
(let ((.def_357 (not b.counter.2__AT2)))
(let ((.def_648 (or .def_357 .def_644)))
(let ((.def_651 (and .def_648 .def_650)))
(let ((.def_652 (or b.counter.3__AT2 .def_651)))
(let ((.def_645 (or b.counter.2__AT2 .def_644)))
(let ((.def_643 (or .def_352 .def_357)))
(let ((.def_646 (and .def_643 .def_645)))
(let ((.def_371 (not b.counter.3__AT2)))
(let ((.def_647 (or .def_371 .def_646)))
(let ((.def_653 (and .def_647 .def_652)))
(let ((.def_640 (and .def_69 .def_639)))
(let ((.def_635 (or .def_632 .def_634)))
(let ((.def_625 (or .def_544 .def_554)))
(let ((.def_629 (or b.counter.3__AT3 .def_625)))
(let ((.def_626 (or b.counter.2__AT3 .def_625)))
(let ((.def_624 (or .def_549 .def_554)))
(let ((.def_627 (and .def_624 .def_626)))
(let ((.def_628 (or .def_563 .def_627)))
(let ((.def_630 (and .def_628 .def_629)))
(let ((.def_636 (and .def_630 .def_635)))
(let ((.def_641 (and .def_636 .def_640)))
(let ((.def_619 (<= 0.0 b.delta__AT2)))
(let ((.def_442 (not b.EVENT.0__AT2)))
(let ((.def_440 (not b.EVENT.1__AT2)))
(let ((.def_488 (and .def_440 .def_442)))
(let ((.def_490 (not .def_488)))
(let ((.def_620 (or .def_490 .def_619)))
(let ((.def_621 (or b.EVENT.1__AT2 .def_620)))
(let ((.def_529 (= b.bool_atom__AT2 b.bool_atom__AT3)))
(let ((.def_525 (= b.counter.0__AT2 b.counter.0__AT3)))
(let ((.def_522 (= b.counter.1__AT2 b.counter.1__AT3)))
(let ((.def_519 (= b.counter.2__AT2 b.counter.2__AT3)))
(let ((.def_517 (= b.counter.3__AT2 b.counter.3__AT3)))
(let ((.def_520 (and .def_517 .def_519)))
(let ((.def_523 (and .def_520 .def_522)))
(let ((.def_526 (and .def_523 .def_525)))
(let ((.def_615 (and .def_526 .def_529)))
(let ((.def_616 (or .def_490 .def_615)))
(let ((.def_617 (or b.EVENT.1__AT2 .def_616)))
(let ((.def_604 (* .def_76 b.delta__AT2)))
(let ((.def_605 (* (- 1.0) b.speed_y__AT3)))
(let ((.def_608 (+ .def_605 .def_604)))
(let ((.def_609 (+ b.speed_y__AT2 .def_608)))
(let ((.def_610 (= .def_609 0.0 )))
(let ((.def_595 (* (- 1.0) b.y__AT3)))
(let ((.def_467 (* b.speed_y__AT2 b.delta__AT2)))
(let ((.def_599 (+ .def_467 .def_595)))
(let ((.def_465 (* b.delta__AT2 b.delta__AT2)))
(let ((.def_466 (* .def_79 .def_465)))
(let ((.def_600 (+ .def_466 .def_599)))
(let ((.def_601 (+ b.y__AT2 .def_600)))
(let ((.def_602 (= .def_601 0.0 )))
(let ((.def_508 (= b.x__AT2 b.x__AT3)))
(let ((.def_603 (and .def_508 .def_602)))
(let ((.def_611 (and .def_603 .def_610)))
(let ((.def_612 (or .def_490 .def_611)))
(let ((.def_511 (= b.y__AT2 b.y__AT3)))
(let ((.def_590 (and .def_508 .def_511)))
(let ((.def_514 (= b.speed_y__AT2 b.speed_y__AT3)))
(let ((.def_591 (and .def_514 .def_590)))
(let ((.def_587 (= b.delta__AT2 0.0 )))
(let ((.def_588 (and .def_488 .def_587)))
(let ((.def_589 (not .def_588)))
(let ((.def_592 (or .def_589 .def_591)))
(let ((.def_593 (or b.EVENT.1__AT2 .def_592)))
(let ((.def_580 (and .def_514 .def_526)))
(let ((.def_581 (or b.bool_atom__AT2 .def_580)))
(let ((.def_555 (or b.counter.0__AT2 .def_554)))
(let ((.def_553 (or .def_362 b.counter.0__AT3)))
(let ((.def_556 (and .def_553 .def_555)))
(let ((.def_557 (and .def_544 .def_556)))
(let ((.def_558 (or b.counter.1__AT2 .def_557)))
(let ((.def_552 (or .def_352 b.counter.1__AT3)))
(let ((.def_559 (and .def_552 .def_558)))
(let ((.def_571 (and .def_549 .def_559)))
(let ((.def_572 (or b.counter.2__AT2 .def_571)))
(let ((.def_566 (and .def_362 .def_544)))
(let ((.def_567 (or b.counter.1__AT2 .def_566)))
(let ((.def_568 (and .def_552 .def_567)))
(let ((.def_569 (and b.counter.2__AT3 .def_568)))
(let ((.def_570 (or .def_357 .def_569)))
(let ((.def_573 (and .def_570 .def_572)))
(let ((.def_574 (and b.counter.3__AT3 .def_573)))
(let ((.def_575 (or b.counter.3__AT2 .def_574)))
(let ((.def_560 (and b.counter.2__AT3 .def_559)))
(let ((.def_561 (or b.counter.2__AT2 .def_560)))
(let ((.def_547 (or b.counter.1__AT2 b.counter.1__AT3)))
(let ((.def_545 (and b.counter.0__AT3 .def_544)))
(let ((.def_546 (or .def_352 .def_545)))
(let ((.def_548 (and .def_546 .def_547)))
(let ((.def_550 (and .def_548 .def_549)))
(let ((.def_551 (or .def_357 .def_550)))
(let ((.def_562 (and .def_551 .def_561)))
(let ((.def_564 (and .def_562 .def_563)))
(let ((.def_565 (or .def_371 .def_564)))
(let ((.def_576 (and .def_565 .def_575)))
(let ((.def_349 (* b.speed_y__AT2 b.speed_y__AT2)))
(let ((.def_542 (= .def_349 .def_541)))
(let ((.def_539 (+ b.speed_y__AT2 b.speed_y__AT3)))
(let ((.def_540 (= .def_539 0.0 )))
(let ((.def_543 (and .def_540 .def_542)))
(let ((.def_577 (and .def_543 .def_576)))
(let ((.def_538 (not b.bool_atom__AT2)))
(let ((.def_578 (or .def_538 .def_577)))
(let ((.def_476 (<= 0.0 b.speed_y__AT2)))
(let ((.def_535 (not .def_476)))
(let ((.def_445 (* (- 1.0) b.x__AT2)))
(let ((.def_446 (* b.x__AT2 .def_445)))
(let ((.def_534 (= b.y__AT2 .def_446)))
(let ((.def_536 (and .def_534 .def_535)))
(let ((.def_537 (= b.bool_atom__AT2 .def_536)))
(let ((.def_579 (and .def_537 .def_578)))
(let ((.def_582 (and .def_579 .def_581)))
(let ((.def_583 (and .def_508 .def_582)))
(let ((.def_584 (and .def_511 .def_583)))
(let ((.def_585 (or .def_488 .def_584)))
(let ((.def_586 (or b.EVENT.1__AT2 .def_585)))
(let ((.def_594 (and .def_586 .def_593)))
(let ((.def_613 (and .def_594 .def_612)))
(let ((.def_495 (= b.time__AT2 b.time__AT3)))
(let ((.def_509 (and .def_495 .def_508)))
(let ((.def_512 (and .def_509 .def_511)))
(let ((.def_515 (and .def_512 .def_514)))
(let ((.def_527 (and .def_515 .def_526)))
(let ((.def_530 (and .def_527 .def_529)))
(let ((.def_531 (or .def_440 .def_530)))
(let ((.def_498 (* (- 1.0) b.time__AT3)))
(let ((.def_501 (+ b.delta__AT2 .def_498)))
(let ((.def_502 (+ b.time__AT2 .def_501)))
(let ((.def_503 (= .def_502 0.0 )))
(let ((.def_504 (or .def_490 .def_503)))
(let ((.def_505 (or b.EVENT.1__AT2 .def_504)))
(let ((.def_496 (or .def_488 .def_495)))
(let ((.def_497 (or b.EVENT.1__AT2 .def_496)))
(let ((.def_506 (and .def_497 .def_505)))
(let ((.def_532 (and .def_506 .def_531)))
(let ((.def_492 (= .def_490 b.event_is_timed__AT3)))
(let ((.def_489 (= b.event_is_timed__AT2 .def_488)))
(let ((.def_493 (and .def_489 .def_492)))
(let ((.def_533 (and .def_493 .def_532)))
(let ((.def_614 (and .def_533 .def_613)))
(let ((.def_618 (and .def_614 .def_617)))
(let ((.def_622 (and .def_618 .def_621)))
(let ((.def_623 (and .def_440 .def_622)))
(let ((.def_642 (and .def_623 .def_641)))
(let ((.def_654 (and .def_642 .def_653)))
(let ((.def_477 (* .def_92 b.delta__AT2)))
(let ((.def_478 (+ b.speed_y__AT2 .def_477)))
(let ((.def_482 (<= .def_478 0.0 )))
(let ((.def_481 (<= b.speed_y__AT2 0.0 )))
(let ((.def_483 (and .def_481 .def_482)))
(let ((.def_479 (<= 0.0 .def_478)))
(let ((.def_480 (and .def_476 .def_479)))
(let ((.def_484 (or .def_480 .def_483)))
(let ((.def_468 (+ .def_466 .def_467)))
(let ((.def_469 (* (- 1.0) .def_446)))
(let ((.def_472 (+ .def_469 .def_468)))
(let ((.def_473 (+ b.y__AT2 .def_472)))
(let ((.def_474 (<= 0.0 .def_473)))
(let ((.def_447 (<= .def_446 b.y__AT2)))
(let ((.def_475 (and .def_447 .def_474)))
(let ((.def_485 (and .def_475 .def_484)))
(let ((.def_486 (and .def_69 .def_485)))
(let ((.def_172 (not b.counter.0__AT1)))
(let ((.def_457 (or b.counter.1__AT1 .def_172)))
(let ((.def_458 (or b.counter.2__AT1 .def_457)))
(let ((.def_162 (not b.counter.1__AT1)))
(let ((.def_452 (and .def_162 .def_172)))
(let ((.def_167 (not b.counter.2__AT1)))
(let ((.def_456 (or .def_167 .def_452)))
(let ((.def_459 (and .def_456 .def_458)))
(let ((.def_460 (or b.counter.3__AT1 .def_459)))
(let ((.def_453 (or b.counter.2__AT1 .def_452)))
(let ((.def_451 (or .def_162 .def_167)))
(let ((.def_454 (and .def_451 .def_453)))
(let ((.def_181 (not b.counter.3__AT1)))
(let ((.def_455 (or .def_181 .def_454)))
(let ((.def_461 (and .def_455 .def_460)))
(let ((.def_448 (and .def_69 .def_447)))
(let ((.def_443 (or .def_440 .def_442)))
(let ((.def_433 (or .def_352 .def_362)))
(let ((.def_437 (or b.counter.3__AT2 .def_433)))
(let ((.def_434 (or b.counter.2__AT2 .def_433)))
(let ((.def_432 (or .def_357 .def_362)))
(let ((.def_435 (and .def_432 .def_434)))
(let ((.def_436 (or .def_371 .def_435)))
(let ((.def_438 (and .def_436 .def_437)))
(let ((.def_444 (and .def_438 .def_443)))
(let ((.def_449 (and .def_444 .def_448)))
(let ((.def_427 (<= 0.0 b.delta__AT1)))
(let ((.def_251 (not b.EVENT.0__AT1)))
(let ((.def_249 (not b.EVENT.1__AT1)))
(let ((.def_296 (and .def_249 .def_251)))
(let ((.def_298 (not .def_296)))
(let ((.def_428 (or .def_298 .def_427)))
(let ((.def_429 (or b.EVENT.1__AT1 .def_428)))
(let ((.def_337 (= b.bool_atom__AT1 b.bool_atom__AT2)))
(let ((.def_333 (= b.counter.0__AT1 b.counter.0__AT2)))
(let ((.def_330 (= b.counter.1__AT1 b.counter.1__AT2)))
(let ((.def_327 (= b.counter.2__AT1 b.counter.2__AT2)))
(let ((.def_325 (= b.counter.3__AT1 b.counter.3__AT2)))
(let ((.def_328 (and .def_325 .def_327)))
(let ((.def_331 (and .def_328 .def_330)))
(let ((.def_334 (and .def_331 .def_333)))
(let ((.def_423 (and .def_334 .def_337)))
(let ((.def_424 (or .def_298 .def_423)))
(let ((.def_425 (or b.EVENT.1__AT1 .def_424)))
(let ((.def_412 (* .def_76 b.delta__AT1)))
(let ((.def_413 (* (- 1.0) b.speed_y__AT2)))
(let ((.def_416 (+ .def_413 .def_412)))
(let ((.def_417 (+ b.speed_y__AT1 .def_416)))
(let ((.def_418 (= .def_417 0.0 )))
(let ((.def_403 (* (- 1.0) b.y__AT2)))
(let ((.def_275 (* b.speed_y__AT1 b.delta__AT1)))
(let ((.def_407 (+ .def_275 .def_403)))
(let ((.def_273 (* b.delta__AT1 b.delta__AT1)))
(let ((.def_274 (* .def_79 .def_273)))
(let ((.def_408 (+ .def_274 .def_407)))
(let ((.def_409 (+ b.y__AT1 .def_408)))
(let ((.def_410 (= .def_409 0.0 )))
(let ((.def_316 (= b.x__AT1 b.x__AT2)))
(let ((.def_411 (and .def_316 .def_410)))
(let ((.def_419 (and .def_411 .def_418)))
(let ((.def_420 (or .def_298 .def_419)))
(let ((.def_319 (= b.y__AT1 b.y__AT2)))
(let ((.def_398 (and .def_316 .def_319)))
(let ((.def_322 (= b.speed_y__AT1 b.speed_y__AT2)))
(let ((.def_399 (and .def_322 .def_398)))
(let ((.def_395 (= b.delta__AT1 0.0 )))
(let ((.def_396 (and .def_296 .def_395)))
(let ((.def_397 (not .def_396)))
(let ((.def_400 (or .def_397 .def_399)))
(let ((.def_401 (or b.EVENT.1__AT1 .def_400)))
(let ((.def_388 (and .def_322 .def_334)))
(let ((.def_389 (or b.bool_atom__AT1 .def_388)))
(let ((.def_363 (or b.counter.0__AT1 .def_362)))
(let ((.def_361 (or .def_172 b.counter.0__AT2)))
(let ((.def_364 (and .def_361 .def_363)))
(let ((.def_365 (and .def_352 .def_364)))
(let ((.def_366 (or b.counter.1__AT1 .def_365)))
(let ((.def_360 (or .def_162 b.counter.1__AT2)))
(let ((.def_367 (and .def_360 .def_366)))
(let ((.def_379 (and .def_357 .def_367)))
(let ((.def_380 (or b.counter.2__AT1 .def_379)))
(let ((.def_374 (and .def_172 .def_352)))
(let ((.def_375 (or b.counter.1__AT1 .def_374)))
(let ((.def_376 (and .def_360 .def_375)))
(let ((.def_377 (and b.counter.2__AT2 .def_376)))
(let ((.def_378 (or .def_167 .def_377)))
(let ((.def_381 (and .def_378 .def_380)))
(let ((.def_382 (and b.counter.3__AT2 .def_381)))
(let ((.def_383 (or b.counter.3__AT1 .def_382)))
(let ((.def_368 (and b.counter.2__AT2 .def_367)))
(let ((.def_369 (or b.counter.2__AT1 .def_368)))
(let ((.def_355 (or b.counter.1__AT1 b.counter.1__AT2)))
(let ((.def_353 (and b.counter.0__AT2 .def_352)))
(let ((.def_354 (or .def_162 .def_353)))
(let ((.def_356 (and .def_354 .def_355)))
(let ((.def_358 (and .def_356 .def_357)))
(let ((.def_359 (or .def_167 .def_358)))
(let ((.def_370 (and .def_359 .def_369)))
(let ((.def_372 (and .def_370 .def_371)))
(let ((.def_373 (or .def_181 .def_372)))
(let ((.def_384 (and .def_373 .def_383)))
(let ((.def_158 (* b.speed_y__AT1 b.speed_y__AT1)))
(let ((.def_350 (= .def_158 .def_349)))
(let ((.def_347 (+ b.speed_y__AT1 b.speed_y__AT2)))
(let ((.def_348 (= .def_347 0.0 )))
(let ((.def_351 (and .def_348 .def_350)))
(let ((.def_385 (and .def_351 .def_384)))
(let ((.def_346 (not b.bool_atom__AT1)))
(let ((.def_386 (or .def_346 .def_385)))
(let ((.def_284 (<= 0.0 b.speed_y__AT1)))
(let ((.def_343 (not .def_284)))
(let ((.def_254 (* (- 1.0) b.x__AT1)))
(let ((.def_255 (* b.x__AT1 .def_254)))
(let ((.def_342 (= b.y__AT1 .def_255)))
(let ((.def_344 (and .def_342 .def_343)))
(let ((.def_345 (= b.bool_atom__AT1 .def_344)))
(let ((.def_387 (and .def_345 .def_386)))
(let ((.def_390 (and .def_387 .def_389)))
(let ((.def_391 (and .def_316 .def_390)))
(let ((.def_392 (and .def_319 .def_391)))
(let ((.def_393 (or .def_296 .def_392)))
(let ((.def_394 (or b.EVENT.1__AT1 .def_393)))
(let ((.def_402 (and .def_394 .def_401)))
(let ((.def_421 (and .def_402 .def_420)))
(let ((.def_303 (= b.time__AT1 b.time__AT2)))
(let ((.def_317 (and .def_303 .def_316)))
(let ((.def_320 (and .def_317 .def_319)))
(let ((.def_323 (and .def_320 .def_322)))
(let ((.def_335 (and .def_323 .def_334)))
(let ((.def_338 (and .def_335 .def_337)))
(let ((.def_339 (or .def_249 .def_338)))
(let ((.def_306 (* (- 1.0) b.time__AT2)))
(let ((.def_309 (+ b.delta__AT1 .def_306)))
(let ((.def_310 (+ b.time__AT1 .def_309)))
(let ((.def_311 (= .def_310 0.0 )))
(let ((.def_312 (or .def_298 .def_311)))
(let ((.def_313 (or b.EVENT.1__AT1 .def_312)))
(let ((.def_304 (or .def_296 .def_303)))
(let ((.def_305 (or b.EVENT.1__AT1 .def_304)))
(let ((.def_314 (and .def_305 .def_313)))
(let ((.def_340 (and .def_314 .def_339)))
(let ((.def_300 (= .def_298 b.event_is_timed__AT2)))
(let ((.def_297 (= b.event_is_timed__AT1 .def_296)))
(let ((.def_301 (and .def_297 .def_300)))
(let ((.def_341 (and .def_301 .def_340)))
(let ((.def_422 (and .def_341 .def_421)))
(let ((.def_426 (and .def_422 .def_425)))
(let ((.def_430 (and .def_426 .def_429)))
(let ((.def_431 (and .def_249 .def_430)))
(let ((.def_450 (and .def_431 .def_449)))
(let ((.def_462 (and .def_450 .def_461)))
(let ((.def_285 (* .def_92 b.delta__AT1)))
(let ((.def_286 (+ b.speed_y__AT1 .def_285)))
(let ((.def_290 (<= .def_286 0.0 )))
(let ((.def_289 (<= b.speed_y__AT1 0.0 )))
(let ((.def_291 (and .def_289 .def_290)))
(let ((.def_287 (<= 0.0 .def_286)))
(let ((.def_288 (and .def_284 .def_287)))
(let ((.def_292 (or .def_288 .def_291)))
(let ((.def_276 (+ .def_274 .def_275)))
(let ((.def_277 (* (- 1.0) .def_255)))
(let ((.def_280 (+ .def_277 .def_276)))
(let ((.def_281 (+ b.y__AT1 .def_280)))
(let ((.def_282 (<= 0.0 .def_281)))
(let ((.def_256 (<= .def_255 b.y__AT1)))
(let ((.def_283 (and .def_256 .def_282)))
(let ((.def_293 (and .def_283 .def_292)))
(let ((.def_294 (and .def_69 .def_293)))
(let ((.def_38 (not b.counter.0__AT0)))
(let ((.def_265 (or b.counter.1__AT0 .def_38)))
(let ((.def_266 (or b.counter.2__AT0 .def_265)))
(let ((.def_41 (not b.counter.2__AT0)))
(let ((.def_36 (not b.counter.1__AT0)))
(let ((.def_39 (and .def_36 .def_38)))
(let ((.def_264 (or .def_39 .def_41)))
(let ((.def_267 (and .def_264 .def_266)))
(let ((.def_268 (or b.counter.3__AT0 .def_267)))
(let ((.def_261 (or .def_39 b.counter.2__AT0)))
(let ((.def_260 (or .def_36 .def_41)))
(let ((.def_262 (and .def_260 .def_261)))
(let ((.def_44 (not b.counter.3__AT0)))
(let ((.def_263 (or .def_44 .def_262)))
(let ((.def_269 (and .def_263 .def_268)))
(let ((.def_257 (and .def_69 .def_256)))
(let ((.def_252 (or .def_249 .def_251)))
(let ((.def_242 (or .def_162 .def_172)))
(let ((.def_246 (or b.counter.3__AT1 .def_242)))
(let ((.def_243 (or b.counter.2__AT1 .def_242)))
(let ((.def_241 (or .def_167 .def_172)))
(let ((.def_244 (and .def_241 .def_243)))
(let ((.def_245 (or .def_181 .def_244)))
(let ((.def_247 (and .def_245 .def_246)))
(let ((.def_253 (and .def_247 .def_252)))
(let ((.def_258 (and .def_253 .def_257)))
(let ((.def_236 (<= 0.0 b.delta__AT0)))
(let ((.def_57 (not b.EVENT.0__AT0)))
(let ((.def_55 (not b.EVENT.1__AT0)))
(let ((.def_104 (and .def_55 .def_57)))
(let ((.def_106 (not .def_104)))
(let ((.def_237 (or .def_106 .def_236)))
(let ((.def_238 (or b.EVENT.1__AT0 .def_237)))
(let ((.def_146 (= b.bool_atom__AT0 b.bool_atom__AT1)))
(let ((.def_141 (= b.counter.0__AT0 b.counter.0__AT1)))
(let ((.def_138 (= b.counter.1__AT0 b.counter.1__AT1)))
(let ((.def_135 (= b.counter.2__AT0 b.counter.2__AT1)))
(let ((.def_133 (= b.counter.3__AT0 b.counter.3__AT1)))
(let ((.def_136 (and .def_133 .def_135)))
(let ((.def_139 (and .def_136 .def_138)))
(let ((.def_142 (and .def_139 .def_141)))
(let ((.def_232 (and .def_142 .def_146)))
(let ((.def_233 (or .def_106 .def_232)))
(let ((.def_234 (or b.EVENT.1__AT0 .def_233)))
(let ((.def_221 (* b.delta__AT0 .def_76)))
(let ((.def_222 (* (- 1.0) b.speed_y__AT1)))
(let ((.def_225 (+ .def_222 .def_221)))
(let ((.def_226 (+ b.speed_y__AT0 .def_225)))
(let ((.def_227 (= .def_226 0.0 )))
(let ((.def_213 (* (- 1.0) b.y__AT1)))
(let ((.def_82 (* b.delta__AT0 b.speed_y__AT0)))
(let ((.def_216 (+ .def_82 .def_213)))
(let ((.def_75 (* b.delta__AT0 b.delta__AT0)))
(let ((.def_80 (* .def_75 .def_79)))
(let ((.def_217 (+ .def_80 .def_216)))
(let ((.def_218 (+ b.y__AT0 .def_217)))
(let ((.def_219 (= .def_218 0.0 )))
(let ((.def_124 (= b.x__AT0 b.x__AT1)))
(let ((.def_220 (and .def_124 .def_219)))
(let ((.def_228 (and .def_220 .def_227)))
(let ((.def_229 (or .def_106 .def_228)))
(let ((.def_127 (= b.y__AT0 b.y__AT1)))
(let ((.def_208 (and .def_124 .def_127)))
(let ((.def_130 (= b.speed_y__AT0 b.speed_y__AT1)))
(let ((.def_209 (and .def_130 .def_208)))
(let ((.def_205 (= b.delta__AT0 0.0 )))
(let ((.def_206 (and .def_104 .def_205)))
(let ((.def_207 (not .def_206)))
(let ((.def_210 (or .def_207 .def_209)))
(let ((.def_211 (or b.EVENT.1__AT0 .def_210)))
(let ((.def_198 (and .def_130 .def_142)))
(let ((.def_199 (or b.bool_atom__AT0 .def_198)))
(let ((.def_173 (or b.counter.0__AT0 .def_172)))
(let ((.def_171 (or .def_38 b.counter.0__AT1)))
(let ((.def_174 (and .def_171 .def_173)))
(let ((.def_175 (and .def_162 .def_174)))
(let ((.def_176 (or b.counter.1__AT0 .def_175)))
(let ((.def_170 (or .def_36 b.counter.1__AT1)))
(let ((.def_177 (and .def_170 .def_176)))
(let ((.def_189 (and .def_167 .def_177)))
(let ((.def_190 (or b.counter.2__AT0 .def_189)))
(let ((.def_184 (and .def_38 .def_162)))
(let ((.def_185 (or b.counter.1__AT0 .def_184)))
(let ((.def_186 (and .def_170 .def_185)))
(let ((.def_187 (and b.counter.2__AT1 .def_186)))
(let ((.def_188 (or .def_41 .def_187)))
(let ((.def_191 (and .def_188 .def_190)))
(let ((.def_192 (and b.counter.3__AT1 .def_191)))
(let ((.def_193 (or b.counter.3__AT0 .def_192)))
(let ((.def_178 (and b.counter.2__AT1 .def_177)))
(let ((.def_179 (or b.counter.2__AT0 .def_178)))
(let ((.def_165 (or b.counter.1__AT0 b.counter.1__AT1)))
(let ((.def_163 (and b.counter.0__AT1 .def_162)))
(let ((.def_164 (or .def_36 .def_163)))
(let ((.def_166 (and .def_164 .def_165)))
(let ((.def_168 (and .def_166 .def_167)))
(let ((.def_169 (or .def_41 .def_168)))
(let ((.def_180 (and .def_169 .def_179)))
(let ((.def_182 (and .def_180 .def_181)))
(let ((.def_183 (or .def_44 .def_182)))
(let ((.def_194 (and .def_183 .def_193)))
(let ((.def_159 (* b.speed_y__AT0 b.speed_y__AT0)))
(let ((.def_160 (= .def_158 .def_159)))
(let ((.def_156 (+ b.speed_y__AT0 b.speed_y__AT1)))
(let ((.def_157 (= .def_156 0.0 )))
(let ((.def_161 (and .def_157 .def_160)))
(let ((.def_195 (and .def_161 .def_194)))
(let ((.def_155 (not b.bool_atom__AT0)))
(let ((.def_196 (or .def_155 .def_195)))
(let ((.def_91 (<= 0.0 b.speed_y__AT0)))
(let ((.def_152 (not .def_91)))
(let ((.def_62 (* (- 1.0) b.x__AT0)))
(let ((.def_63 (* b.x__AT0 .def_62)))
(let ((.def_151 (= b.y__AT0 .def_63)))
(let ((.def_153 (and .def_151 .def_152)))
(let ((.def_154 (= b.bool_atom__AT0 .def_153)))
(let ((.def_197 (and .def_154 .def_196)))
(let ((.def_200 (and .def_197 .def_199)))
(let ((.def_201 (and .def_124 .def_200)))
(let ((.def_202 (and .def_127 .def_201)))
(let ((.def_203 (or .def_104 .def_202)))
(let ((.def_204 (or b.EVENT.1__AT0 .def_203)))
(let ((.def_212 (and .def_204 .def_211)))
(let ((.def_230 (and .def_212 .def_229)))
(let ((.def_111 (= b.time__AT0 b.time__AT1)))
(let ((.def_125 (and .def_111 .def_124)))
(let ((.def_128 (and .def_125 .def_127)))
(let ((.def_131 (and .def_128 .def_130)))
(let ((.def_143 (and .def_131 .def_142)))
(let ((.def_147 (and .def_143 .def_146)))
(let ((.def_148 (or .def_55 .def_147)))
(let ((.def_114 (* (- 1.0) b.time__AT1)))
(let ((.def_117 (+ b.delta__AT0 .def_114)))
(let ((.def_118 (+ b.time__AT0 .def_117)))
(let ((.def_119 (= .def_118 0.0 )))
(let ((.def_120 (or .def_106 .def_119)))
(let ((.def_121 (or b.EVENT.1__AT0 .def_120)))
(let ((.def_112 (or .def_104 .def_111)))
(let ((.def_113 (or b.EVENT.1__AT0 .def_112)))
(let ((.def_122 (and .def_113 .def_121)))
(let ((.def_149 (and .def_122 .def_148)))
(let ((.def_108 (= .def_106 b.event_is_timed__AT1)))
(let ((.def_105 (= b.event_is_timed__AT0 .def_104)))
(let ((.def_109 (and .def_105 .def_108)))
(let ((.def_150 (and .def_109 .def_149)))
(let ((.def_231 (and .def_150 .def_230)))
(let ((.def_235 (and .def_231 .def_234)))
(let ((.def_239 (and .def_235 .def_238)))
(let ((.def_240 (and .def_55 .def_239)))
(let ((.def_259 (and .def_240 .def_258)))
(let ((.def_270 (and .def_259 .def_269)))
(let ((.def_93 (* b.delta__AT0 .def_92)))
(let ((.def_94 (+ b.speed_y__AT0 .def_93)))
(let ((.def_98 (<= .def_94 0.0 )))
(let ((.def_97 (<= b.speed_y__AT0 0.0 )))
(let ((.def_99 (and .def_97 .def_98)))
(let ((.def_95 (<= 0.0 .def_94)))
(let ((.def_96 (and .def_91 .def_95)))
(let ((.def_100 (or .def_96 .def_99)))
(let ((.def_83 (+ .def_80 .def_82)))
(let ((.def_84 (* (- 1.0) .def_63)))
(let ((.def_87 (+ .def_84 .def_83)))
(let ((.def_88 (+ b.y__AT0 .def_87)))
(let ((.def_89 (<= 0.0 .def_88)))
(let ((.def_64 (<= .def_63 b.y__AT0)))
(let ((.def_90 (and .def_64 .def_89)))
(let ((.def_101 (and .def_90 .def_100)))
(let ((.def_102 (and .def_69 .def_101)))
(let ((.def_70 (and .def_64 .def_69)))
(let ((.def_58 (or .def_55 .def_57)))
(let ((.def_48 (or .def_36 .def_38)))
(let ((.def_52 (or b.counter.3__AT0 .def_48)))
(let ((.def_49 (or b.counter.2__AT0 .def_48)))
(let ((.def_47 (or .def_38 .def_41)))
(let ((.def_50 (and .def_47 .def_49)))
(let ((.def_51 (or .def_44 .def_50)))
(let ((.def_53 (and .def_51 .def_52)))
(let ((.def_59 (and .def_53 .def_58)))
(let ((.def_71 (and .def_59 .def_70)))
(let ((.def_42 (and .def_39 .def_41)))
(let ((.def_45 (and .def_42 .def_44)))
(let ((.def_33 (= b.y__AT0 10.0 )))
(let ((.def_29 (= b.x__AT0 0.0 )))
(let ((.def_25 (= b.time__AT0 0.0 )))
(let ((.def_27 (and .def_25 b.event_is_timed__AT0)))
(let ((.def_30 (and .def_27 .def_29)))
(let ((.def_34 (and .def_30 .def_33)))
(let ((.def_46 (and .def_34 .def_45)))
(let ((.def_72 (and .def_46 .def_71)))
(let ((.def_17 (or b.counter.1__AT4 .def_9)))
(let ((.def_18 (or b.counter.2__AT4 .def_17)))
(let ((.def_10 (and .def_6 .def_9)))
(let ((.def_16 (or .def_4 .def_10)))
(let ((.def_19 (and .def_16 .def_18)))
(let ((.def_20 (or b.counter.3__AT4 .def_19)))
(let ((.def_11 (or b.counter.2__AT4 .def_10)))
(let ((.def_7 (or .def_4 .def_6)))
(let ((.def_12 (and .def_7 .def_11)))
(let ((.def_15 (or .def_12 .def_14)))
(let ((.def_21 (and .def_15 .def_20)))
(let ((.def_22 (not .def_21)))
(let ((.def_73 (and .def_22 .def_72)))
(let ((.def_103 (and .def_73 .def_102)))
(let ((.def_271 (and .def_103 .def_270)))
(let ((.def_295 (and .def_271 .def_294)))
(let ((.def_463 (and .def_295 .def_462)))
(let ((.def_487 (and .def_463 .def_486)))
(let ((.def_655 (and .def_487 .def_654)))
(let ((.def_679 (and .def_655 .def_678)))
(let ((.def_839 (and .def_679 .def_838)))
(let ((.def_863 (and .def_839 .def_862)))
.def_863))))))))))))))))))))))))))))))))))))))))))))))))))))))))))))))))))))))))))))))))))))))))))))))))))))))))))))))))))))))))))))))))))))))))))))))))))))))))))))))))))))))))))))))))))))))))))))))))))))))))))))))))))))))))))))))))))))))))))))))))))))))))))))))))))))))))))))))))))))))))))))))))))))))))))))))))))))))))))))))))))))))))))))))))))))))))))))))))))))))))))))))))))))))))))))))))))))))))))))))))))))))))))))))))))))))))))))))))))))))))))))))))))))))))))))))))))))))))))))))))))))))))))))))))))))))))))))))))))))))))))))))))))))))))))))))))))))))))))))))))))))))))))))))))))))))))))))))))))))))))))))))))))))))))))))))))))))))))))))))))))))))))))))))))))))))))))))))))))))))))))))))))))))))))))))))))))))))))))))))))))))))))))))))))))))))))))))))))
(check-sat)
(exit)
